100 10
18 10
52 28
16 27
73 94
80 99
15 78
61 72
72 35
7 3
8 61
80 11
42 71
49 86
55 24
82 34
62 31
86 64
98 34
64 54
87 34
27 97
37 27
82 51
27 62
100 75
67 74
23 58
12 59
55 91
24 18
98 91
2 5
60 28
72 22
48 96
28 8
65 97
26 9
46 55
46 87
3 73
69 70
42 85
42 87
36 25
23 73
22 31
42 13
99 23
15 74
92 11
53 40
93 88
12 58
28 16
56 76
37 94
61 24
27 14
100 86
13 58
57 69
4 6
48 95
23 69
100 34
93 98
23 20
87 70
98 7
9 56
6 5
5 12
7 94
64 66
39 7
32 65
45 24
1 59
47 32
48 35
9 98
48 21
12 54
48 3
59 15
67 82
56 2
42 34
55 96
86 30
33 52
62 35
25 36
58 22
92 77
99 16
94 74
7 1
41 67
354 410
443 534
654 739
451 550
595 711
361 416
403 476
550 619
599 719
585 718
